m = 5; % Numero de LINACs
p = 20; % Numero de nuevos pacientes
s = 7; % Sesiones por tanda

% Tiempo disponible para cada LINAC (sacando el tiempo ya comprometido)
disponible = array2d(1..m, 1..7*3,
  [
    % Disponibilidad en los 21 dias del LINAC 1
    48, 48, 48, 48,  0, 48, 48,
    48, 36, 48, 48, 48, 48, 48,
     0, 48, 48, 48, 48, 48, 36,

    % Disponibilidad en los 21 dias del LINAC 2
    48, 48,  0, 48, 48, 36, 48,
    48, 48, 48,  0, 48, 48, 48,
    48, 48, 48, 48, 36, 48, 48,

    % Disponibilidad en los 21 dias del LINAC 3
    36, 48, 48, 48, 48, 48,  0,
    48, 48, 48, 48, 48,  0, 48,
    48, 48, 36, 48, 48, 48, 48,

    % Disponibilidad en los 21 dias del LINAC 4
    48, 48, 48, 36, 48, 48, 48,
    48,  0, 48, 48, 48, 48, 48,
    48, 48, 48, 48, 48, 36, 48,

    % Disponibilidad en los 21 dias del LINAC 5
    48, 48, 48, 48, 48, 48, 48,
     0, 48, 48, 48, 48, 48,  0,
    48, 48, 48, 48, 48, 48, 48
  ]);

% Dias de la semana en los que se hizo la solicitud (1=Lunes, ..., 5=Viernes)
solicitud = [
  1, 2, 3, 4, 5,  % Patients 1-5
  1, 2, 3, 4, 5,  % Patients 6-10
  1, 2, 3, 4, 5,  % Patients 11-15
  1, 2, 3, 4, 5   % Patients 16-20
];

% Duracion de cada sesion por paciente
duracion = array2d(1..p, 1..s,
  [
    4, 5, 3, 6, 4, 5, 3,
    6, 5, 7, 5, 6, 5, 7,
    8, 7, 9, 7, 8, 7, 9,
    5, 6, 5, 7, 5, 6, 5,
    7, 8, 6, 8, 7, 8, 6,
    3, 2, 4, 2, 3, 2, 4,
    2, 3, 2, 3, 2, 3, 2,
    4, 5, 4, 5, 4, 5, 4,
    6, 5, 7, 5, 6, 5, 7,
    8, 9, 8, 9, 8, 9, 8,
    5, 6, 5, 7, 5, 6, 5,
    7, 8, 7, 9, 7, 8, 7,
    3, 4, 3, 4, 3, 4, 3,
    2, 2, 3, 2, 2, 3, 2,
    4, 5, 4, 6, 4, 5, 4,
    6, 7, 6, 8, 6, 7, 6,
    8, 9,10, 9, 8, 9,10,
    5, 5, 6, 5, 5, 6, 5,
    7, 8, 7, 8, 7, 8, 7,
    3, 4, 3, 4, 3, 4, 3
  ]);

% Separacion ideal entre sesiones
separacion = array2d(1..p, 1..s,
  [
    1, 2, 1, 2, 1, 2, 1,
    2, 1, 2, 1, 2, 1, 2,
    3, 2, 3, 2, 3, 2, 3,
    1, 3, 1, 3, 1, 3, 1,
    2, 2, 2, 2, 2, 2, 2,
    1, 4, 1, 4, 1, 4, 1,
    2, 2, 5, 2, 2, 5, 2,
    1, 1, 1, 1, 1, 1, 1,
    3, 2, 3, 2, 3, 2, 3,
    2, 3, 2, 3, 2, 3, 2,
    1, 2, 3, 2, 1, 2, 3,
    2, 3, 2, 4, 2, 3, 2,
    1, 5, 1, 5, 1, 5, 1,
    2, 2, 2, 6, 2, 2, 2,
    1, 2, 1, 2, 1, 2, 1,
    3, 3, 3, 4, 3, 3, 3,
    2, 2, 3, 2, 2, 3, 2,
    1, 3, 1, 4, 1, 3, 1,
    2, 4, 2, 5, 2, 4, 2,
    1, 1, 1, 1, 1, 1, 1
  ]);
